; This Source Code Form is subject to the terms of the Mozilla Public
; License, v. 2.0. If a copy of the MPL was not distributed with this
; file, You can obtain one at http://mozilla.org/MPL/2.0/.

; ATTENTION: Continuing multi-line statements must be indented with at least
;            one tab or two spaces. All other lines must not start with tabs
;            or more than one space.

(set-option :print-success true)
(set-option :produce-models true) ; if model is required
(set-logic ALL_SUPPORTED) ; for now, required logic fragment will checked later
